Mack/Bortfeldt(2008)
Bin-Packing-Problem
BP-RG/SBSBPP/SSSCSP
Testcase-ID	3
Problem-ID	25
no_item_types	8
no_items	1224
CONTAINER_DATA (l,w,h)	485	131	118
ITEMS_DATA:
Type	x	y	z	no_items
1	100	80	72	149
2	109	58	54	161
3	87	77	43	140
4	88	54	39	163
5	94	54	36	151
6	94	55	30	142
7	83	40	36	165
8	91	54	22	153
